\ LP format - for model browsing. Use MPS format to capture full model detail.
Minimize
  0 e
Subject To
 c: c >= -3
 c: a + b >= 0
 c: a + b >= 1
 c: 2 c + d <= 0
Bounds
 a free
 b free
 c free
 d free
 e free
End
